11624
11620
11622
11646
11631
2178
2006
2005
2054
2000
564
556
582
3064
3050
3052
3047
992
906
941
931
13359
13344
13337
13340
13328
3341
3298
3405
3412
3309
1410
1382
1384
7684
7678
7689
7687
2408
2400
2405
2481
6660
6650
6654
6649
6657
6000
6000
5880
3848
3851
3850
3852
10294
4012
3492
19263
6078
14176
5789
4868
26997
8735
5558
6360
6940
9541
6998
9926
14030